benchmarks_vrp/CMT11/fixed_c/CMT11_8.vrp
NAME: CMT11_8
TYPE: CVRP
COMMENT: 1042.11 - Cluster Nr.8
DIMENSION: 7
CAPACITY: 200
EDGE_WEIGHT_TYPE: EUC_2D
NODE_COORD_TYPE: TWOD_COORDS
NODE_COORD_SECTION: 
4 10 45
1 32 5
5 31 7
3 32 9
2 25 1
6 31 5
7 25 3
DEPOT_SECTION: 
4
-1
DEMAND_SECTION: 
5 14
6 13
7 7
2 25
3 5
4 0
1 6
EOF
