benchmarks_vrp/CMT11/fixed_c/CMT11_8.tour
NAME: CMT11_8 solution
TYPE: TOUR
TOUR_SECTION:
4 2 7 6 1 5 3 -1
-1
EOF